NAME: random-3-7721
TYPE: TSP
COMMENT: size=3 seed=7721
DIMENSION: 8
EDGE_WEIGHT_TYPE: EUC_2D
NODE_COORD_SECTION
+0 847 824
-0 847 824
+1 419 682
-1 363 111
+2 615 437
-2 473 495
+3 227 180
-3 63 80
PRECEDENCE_SECTION
+0 -0
+1 -1
+2 -2
+3 -3
EOF
